(set-logic QF_SLIA)
(declare-fun var0 () String)
(assert (str.in_re var0 (re.++ ((_ re.loop 14 621) (re.++ (re.union (str.to_re "q'") (re.union (str.to_re "N7\u0022") (re.union (str.to_re ":q") (str.to_re ".&H")))) (re.++ (re.union (str.to_re "AR9") (re.union (str.to_re "X\u0022") (re.union (str.to_re "1sK") (str.to_re "(=\u0022")))) (re.++ (re.union (str.to_re "3FE") (re.union (str.to_re "2") (re.union (str.to_re ".") (str.to_re "KY")))) (re.union (str.to_re ";") (re.union (str.to_re "$") (re.union (str.to_re "e") (str.to_re "Iy")))))))) (re.++ ((_ re.loop 9 148) (re.++ (re.union (str.to_re "wC7") (re.union (str.to_re "2c`") (re.union (str.to_re "v") (str.to_re "r")))) (re.++ (re.union (str.to_re "R") (re.union (str.to_re "Z") (re.union (str.to_re "3") (str.to_re "z")))) (re.++ (re.union (str.to_re "MI") (re.union (str.to_re "0{o") (re.union (str.to_re "/") (str.to_re "p")))) (re.union (str.to_re "A") (re.union (str.to_re "mp") (re.union (str.to_re "u?i") (str.to_re "e.")))))))) (re.++ ((_ re.loop 14 873) (re.++ (re.union (str.to_re "i") (re.union (str.to_re "11") (re.union (str.to_re "{?B") (str.to_re ">Y")))) (re.++ (re.union (str.to_re "/X") (re.union (str.to_re "&") (re.union (str.to_re "x%@") (str.to_re "Yh:")))) (re.++ (re.union (str.to_re ";n") (re.union (str.to_re "/") (re.union (str.to_re "<") (str.to_re "n")))) (re.union (str.to_re "6") (re.union (str.to_re "Ubj") (re.union (str.to_re "u4") (str.to_re "w")))))))) ((_ re.loop 14 603) (re.++ (re.union (str.to_re "IS") (re.union (str.to_re "Ps") (re.union (str.to_re "e,") (str.to_re "y{")))) (re.++ (re.union (str.to_re "B") (re.union (str.to_re "68Z") (re.union (str.to_re "&N") (str.to_re "!h_")))) (re.++ (re.union (str.to_re "lf") (re.union (str.to_re ")K") (re.union (str.to_re "+uS") (str.to_re ":CJ")))) (re.union (str.to_re "o_I") (re.union (str.to_re "(_") (re.union (str.to_re "2") (str.to_re "Dc'")))))))))))))
(assert (not (str.in_re var0 (re.++ ((_ re.loop 5 205) (re.++ (re.union (str.to_re "z{;") (re.union (str.to_re "(@") (re.union (str.to_re "{") (str.to_re "g\u0022")))) (re.++ (re.union (str.to_re "(") (re.union (str.to_re ".2v") (re.union (str.to_re "pm") (str.to_re "R.B")))) (re.++ (re.union (str.to_re "P\u0022") (re.union (str.to_re ".B") (re.union (str.to_re "XD") (str.to_re "\\=A")))) (re.union (str.to_re "TZ") (re.union (str.to_re "evY") (re.union (str.to_re "[W") (str.to_re "=b")))))))) (re.++ ((_ re.loop 8 724) (re.++ (re.union (str.to_re "&;`") (re.union (str.to_re "`") (re.union (str.to_re "%") (str.to_re "~'")))) (re.++ (re.union (str.to_re "|~") (re.union (str.to_re "a7") (re.union (str.to_re "vvp") (str.to_re "z")))) (re.++ (re.union (str.to_re "FF\u0022") (re.union (str.to_re "*") (re.union (str.to_re "Op") (str.to_re "L")))) (re.union (str.to_re "~") (re.union (str.to_re "F5") (re.union (str.to_re "i)") (str.to_re "4")))))))) (re.++ ((_ re.loop 4 246) (re.++ (re.union (str.to_re "xC") (re.union (str.to_re "D") (re.union (str.to_re ";1") (str.to_re "?UC")))) (re.++ (re.union (str.to_re "#") (re.union (str.to_re ";cm") (re.union (str.to_re "L^") (str.to_re "w")))) (re.++ (re.union (str.to_re "3?H") (re.union (str.to_re ".G>") (re.union (str.to_re "aW") (str.to_re "/")))) (re.union (str.to_re "w-E") (re.union (str.to_re "|") (re.union (str.to_re "Jxn") (str.to_re "x")))))))) ((_ re.loop 2 273) (re.++ (re.union (str.to_re "1") (re.union (str.to_re "{") (re.union (str.to_re "%6") (str.to_re "3J")))) (re.++ (re.union (str.to_re "91") (re.union (str.to_re "i1") (re.union (str.to_re "Xqq") (str.to_re "L")))) (re.++ (re.union (str.to_re "bU$") (re.union (str.to_re "I") (re.union (str.to_re "l") (str.to_re "tA")))) (re.union (str.to_re "ng") (re.union (str.to_re "qux") (re.union (str.to_re "t}") (str.to_re "J/"))))))))))))))
(assert (not (str.in_re var0 (re.++ (re.* re.allchar) (re.++ (re.union (str.to_re "<") (re.union (str.to_re ">") (re.union (str.to_re "'") (re.union (str.to_re "\u0022") (str.to_re "&"))))) (re.* re.allchar))))))
(assert (<= 50 (str.len var0)))
(check-sat)
(get-model)
